<number of tasks>
20


<number of equipment>
5


<cycle time>
1000


<investment costs>
1,20716
2,22423
3,16346
4,13345
5,25668


<task times>
1,-1,491,508,-1,-1
2,387,-1,-1,527,341
3,-1,473,519,-1,-1
4,434,-1,-1,551,365
5,439,-1,-1,549,368
6,472,-1,-1,546,442
7,405,-1,-1,494,358
8,-1,394,-1,434,358
9,-1,456,-1,601,432
10,-1,460,-1,550,420
11,-1,378,-1,530,339
12,-1,494,-1,548,391
13,-1,481,-1,564,440
14,-1,469,-1,550,380
15,490,-1,-1,541,401
16,426,-1,-1,515,357
17,494,-1,-1,586,399
18,450,-1,-1,561,396
19,-1,392,456,-1,-1
20,462,-1,-1,536,415


<precedence relations>
1,7
2,7
3,4
3,5
3,6
4,7
5,7
6,8
6,9
7,10
7,11
7,12
7,13
8,16
9,16
12,14
12,15
13,16
14,17
14,18
14,19
16,20


<task types>
1,1
2,3
3,1
4,3
5,3
6,3
7,3
8,2
9,2
10,2
11,2
12,2
13,2
14,2
15,3
16,3
17,3
18,3
19,1
20,3


<line depot>
1,0
2,3
3,0
4,14
5,0


<processing costs>
1,7200
2,14400
3,7200
4,14400
5,14400


<saving costs>
1,2071
2,2242
3,1634
4,1334
5,2566


<end>
